NAME: line_60_2
TYPE: TSP
COMMENT: line_60_2
DIMENSION: 60
EDGE_WEIGHT_TYPE: EUC_2D
NODE_COORD_SECTION
1 0.0 207.0
2 0.0 434.0
3 0.0 513.0
4 0.0 450.0
5 0.0 313.0
6 0.0 547.0
7 0.0 16.0
8 0.0 166.0
9 0.0 591.0
10 0.0 443.0
11 0.0 466.0
12 0.0 463.0
13 0.0 306.0
14 0.0 310.0
15 0.0 306.0
16 0.0 206.0
17 0.0 33.0
18 0.0 429.0
19 0.0 35.0
20 0.0 27.0
21 0.0 173.0
22 0.0 354.0
23 0.0 24.0
24 0.0 278.0
25 0.0 380.0
26 0.0 173.0
27 0.0 156.0
28 0.0 367.0
29 0.0 555.0
30 0.0 567.0
31 0.0 381.0
32 0.0 439.0
33 0.0 135.0
34 0.0 259.0
35 0.0 309.0
36 0.0 203.0
37 0.0 470.0
38 0.0 483.0
39 0.0 56.0
40 0.0 442.0
41 0.0 564.0
42 0.0 166.0
43 0.0 491.0
44 0.0 4.0
45 0.0 167.0
46 0.0 598.0
47 0.0 119.0
48 0.0 360.0
49 0.0 80.0
50 0.0 177.0
51 0.0 357.0
52 0.0 148.0
53 0.0 100.0
54 0.0 318.0
55 0.0 581.0
56 0.0 37.0
57 0.0 212.0
58 0.0 451.0
59 0.0 416.0
60 0.0 43.0
